decision_x1=[0,2];
decision_x2=[0,2];
decision_x3=[0,2];
decision_x4=[0,2];
decision_x5=[0,2];
decision_x6=[0,2];
decision_x7=[0,2];
decision_x8=[0,2];
decision_x9=[0,2];
decision_x10=[0,2];
decision_x11=[0,2];
decision_x12=[0,2];
random_y1=[0,2];
random_y2=[0,2];
random_y3=[0,2];
random_y4=[0,2];
random_y5=[0,2];
random_y6=[0,2];
random_y7=[0,2];
random_y8=[0,2];
random_y9=[0,2];
random_y10=[0,2];
random_y11=[0,2];
random_y12=[0,2];
constraint_x4_x1=[
0,0,66|
0,1,56|
0,2,77|
1,0,77|
1,1,93|
1,2,30|
2,0,54|
2,1,33|
2,2,93|
];
constraint_x4_x2=[
0,0,63|
0,1,46|
0,2,85|
1,0,60|
1,1,28|
1,2,93|
2,0,67|
2,1,87|
2,2,92|
];
constraint_x4_x3=[
0,0,78|
0,1,25|
0,2,96|
1,0,77|
1,1,93|
1,2,90|
2,0,79|
2,1,84|
2,2,98|
];
constraint_x5_x1=[
0,0,24|
0,1,45|
0,2,56|
1,0,12|
1,1,12|
1,2,49|
2,0,81|
2,1,6.4|
2,2,39|
];
constraint_x5_x2=[
0,0,74|
0,1,62|
0,2,78|
1,0,82|
1,1,38|
1,2,38|
2,0,48|
2,1,68|
2,2,94|
];
constraint_x5_x3=[
0,0,4.2|
0,1,50|
0,2,25|
1,0,32|
1,1,44|
1,2,91|
2,0,48|
2,1,35|
2,2,68|
];
constraint_x5_x4=[
0,0,53|
0,1,24|
0,2,7|
1,0,29|
1,1,1.5|
1,2,93|
2,0,65|
2,1,70|
2,2,96|
];
constraint_x6_x1=[
0,0,41|
0,1,63|
0,2,9.9|
1,0,42|
1,1,18|
1,2,12|
2,0,57|
2,1,1.3|
2,2,41|
];
constraint_x6_x2=[
0,0,50|
0,1,37|
0,2,5.4|
1,0,70|
1,1,42|
1,2,63|
2,0,20|
2,1,50|
2,2,44|
];
constraint_x6_x3=[
0,0,42|
0,1,37|
0,2,84|
1,0,4.7|
1,1,15|
1,2,49|
2,0,16|
2,1,81|
2,2,55|
];
constraint_x6_x4=[
0,0,34|
0,1,1.7|
0,2,2.7|
1,0,14|
1,1,62|
1,2,25|
2,0,51|
2,1,40|
2,2,93|
];
constraint_x6_x5=[
0,0,98|
0,1,22|
0,2,94|
1,0,66|
1,1,69|
1,2,41|
2,0,87|
2,1,88|
2,2,60|
];
constraint_x7_x1=[
0,0,41|
0,1,50|
0,2,73|
1,0,79|
1,1,27|
1,2,84|
2,0,2.1|
2,1,54|
2,2,4.7|
];
constraint_x7_x6=[
0,0,73|
0,1,99|
0,2,16|
1,0,28|
1,1,49|
1,2,62|
2,0,51|
2,1,7.1|
2,2,39|
];
constraint_x8_x1=[
0,0,28|
0,1,73|
0,2,74|
1,0,91|
1,1,12|
1,2,80|
2,0,95|
2,1,61|
2,2,93|
];
constraint_x8_x2=[
0,0,68|
0,1,25|
0,2,51|
1,0,17|
1,1,16|
1,2,9.9|
2,0,11|
2,1,93|
2,2,90|
];
constraint_x8_x3=[
0,0,40|
0,1,95|
0,2,46|
1,0,10|
1,1,54|
1,2,44|
2,0,35|
2,1,93|
2,2,2.2|
];
constraint_x8_x4=[
0,0,91|
0,1,21|
0,2,89|
1,0,23|
1,1,18|
1,2,23|
2,0,7.9|
2,1,97|
2,2,99|
];
constraint_x8_x6=[
0,0,76|
0,1,50|
0,2,43|
1,0,35|
1,1,7|
1,2,61|
2,0,17|
2,1,96|
2,2,16|
];
constraint_x9_x1=[
0,0,16|
0,1,80|
0,2,5.5|
1,0,17|
1,1,68|
1,2,75|
2,0,94|
2,1,89|
2,2,7.6|
];
constraint_x9_x2=[
0,0,90|
0,1,86|
0,2,27|
1,0,44|
1,1,62|
1,2,57|
2,0,2.4|
2,1,92|
2,2,20|
];
constraint_x9_x8=[
0,0,73|
0,1,82|
0,2,9|
1,0,93|
1,1,18|
1,2,77|
2,0,78|
2,1,14|
2,2,52|
];
constraint_x10_x2=[
0,0,8.6|
0,1,97|
0,2,40|
1,0,90|
1,1,70|
1,2,7.3|
2,0,92|
2,1,63|
2,2,37|
];
constraint_x10_x5=[
0,0,25|
0,1,47|
0,2,36|
1,0,70|
1,1,79|
1,2,80|
2,0,55|
2,1,38|
2,2,37|
];
constraint_x11_x1=[
0,0,74|
0,1,15|
0,2,17|
1,0,17|
1,1,60|
1,2,43|
2,0,22|
2,1,64|
2,2,75|
];
constraint_x11_x2=[
0,0,61|
0,1,1e+02|
0,2,14|
1,0,63|
1,1,40|
1,2,93|
2,0,46|
2,1,61|
2,2,81|
];
constraint_x11_x5=[
0,0,31|
0,1,35|
0,2,79|
1,0,43|
1,1,75|
1,2,95|
2,0,88|
2,1,0.07|
2,2,59|
];
constraint_x11_x6=[
0,0,7.7|
0,1,72|
0,2,36|
1,0,33|
1,1,31|
1,2,75|
2,0,44|
2,1,79|
2,2,69|
];
constraint_x12_x2=[
0,0,34|
0,1,97|
0,2,95|
1,0,87|
1,1,44|
1,2,31|
2,0,39|
2,1,74|
2,2,49|
];
constraint_x12_x3=[
0,0,79|
0,1,73|
0,2,91|
1,0,47|
1,1,4.3|
1,2,39|
2,0,7.8|
2,1,66|
2,2,81|
];
constraint_x12_x4=[
0,0,81|
0,1,61|
0,2,86|
1,0,22|
1,1,59|
1,2,32|
2,0,11|
2,1,1.8|
2,2,7.8|
];
constraint_x12_x8=[
0,0,1.1|
0,1,16|
0,2,22|
1,0,27|
1,1,16|
1,2,17|
2,0,97|
2,1,56|
2,2,95|
];
constraint_x12_x9=[
0,0,99|
0,1,11|
0,2,64|
1,0,27|
1,1,86|
1,2,87|
2,0,65|
2,1,28|
2,2,95|
];
constraint_x1_y1=[
0,0,81|
0,1,61|
0,2,50|
1,0,8|
1,1,72|
1,2,52|
2,0,73|
2,1,96|
2,2,75|
];
constraint_x2_y2=[
0,0,54|
0,1,15|
0,2,54|
1,0,80|
1,1,3.2|
1,2,50|
2,0,63|
2,1,94|
2,2,31|
];
constraint_x3_y3=[
0,0,96|
0,1,66|
0,2,41|
1,0,61|
1,1,80|
1,2,7.2|
2,0,51|
2,1,70|
2,2,71|
];
constraint_x4_y4=[
0,0,45|
0,1,61|
0,2,46|
1,0,77|
1,1,34|
1,2,91|
2,0,66|
2,1,71|
2,2,80|
];
constraint_x5_y5=[
0,0,50|
0,1,11|
0,2,45|
1,0,33|
1,1,19|
1,2,27|
2,0,41|
2,1,18|
2,2,60|
];
constraint_x6_y6=[
0,0,90|
0,1,33|
0,2,27|
1,0,43|
1,1,71|
1,2,72|
2,0,36|
2,1,60|
2,2,71|
];
constraint_x7_y7=[
0,0,63|
0,1,43|
0,2,52|
1,0,20|
1,1,79|
1,2,80|
2,0,94|
2,1,56|
2,2,94|
];
constraint_x8_y8=[
0,0,40|
0,1,73|
0,2,77|
1,0,65|
1,1,8|
1,2,30|
2,0,80|
2,1,80|
2,2,27|
];
constraint_x9_y9=[
0,0,50|
0,1,61|
0,2,59|
1,0,53|
1,1,50|
1,2,95|
2,0,95|
2,1,57|
2,2,29|
];
constraint_x10_y10=[
0,0,49|
0,1,25|
0,2,42|
1,0,78|
1,1,52|
1,2,69|
2,0,14|
2,1,26|
2,2,54|
];
constraint_x11_y11=[
0,0,87|
0,1,26|
0,2,3.4|
1,0,82|
1,1,68|
1,2,9.1|
2,0,11|
2,1,45|
2,2,44|
];
constraint_x12_y12=[
0,0,48|
0,1,2.2|
0,2,54|
1,0,72|
1,1,0.15|
1,2,14|
2,0,59|
2,1,75|
2,2,59|
];
initial_distribution_y1=[0.022,0.81,0.17];
initial_distribution_y2=[0.47,0.36,0.18];
initial_distribution_y3=[0.27,0.51,0.21];
initial_distribution_y4=[0.48,0.5,0.018];
initial_distribution_y5=[0.48,0.068,0.45];
initial_distribution_y6=[0.36,0.33,0.31];
initial_distribution_y7=[0.58,0.25,0.17];
initial_distribution_y8=[0.29,0.3,0.41];
initial_distribution_y9=[0.47,0.12,0.41];
initial_distribution_y10=[0.25,0.57,0.19];
initial_distribution_y11=[0.47,0.2,0.32];
initial_distribution_y12=[0.31,0.03,0.66];
transition_y1=[
0.13,0.49,0.38|
0.28,0.079,0.64|
0.22,0.46,0.32|
];
transition_y2=[
0.39,0.23,0.38|
0.35,0.23,0.42|
0.49,0.4,0.11|
];
transition_y3=[
0.26,0.34,0.41|
0.15,0.15,0.7|
0.16,0.67,0.17|
];
transition_y4=[
0.18,0.76,0.062|
0.21,0.31,0.48|
0.34,0.058,0.6|
];
transition_y5=[
0.11,0.27,0.62|
0.088,0.51,0.4|
0.32,0.34,0.35|
];
transition_y6=[
0.15,0.5,0.34|
0.67,0.07,0.26|
0.56,0.25,0.19|
];
transition_y7=[
0.44,0.39,0.17|
0.2,0.35,0.45|
0.12,0.4,0.48|
];
transition_y8=[
0.17,0.7,0.13|
0.52,0.25,0.23|
0.26,0.43,0.31|
];
transition_y9=[
0.14,0.44,0.42|
0.031,0.81,0.15|
0.5,0.16,0.34|
];
transition_y10=[
0.16,0.54,0.3|
0.21,0.57,0.21|
0.48,0.14,0.38|
];
transition_y11=[
0.39,0.33,0.28|
0.33,0.27,0.4|
0.39,0.074,0.54|
];
transition_y12=[
0.24,0.46,0.3|
0.32,0.29,0.38|
0.63,0.29,0.082|
];
